&CONTROL
  calculation = 'scf',
  prefix      = 'Mn_Im-3m',
  outdir      = './tmp/',
  pseudo_dir  = '../pseudos/',
  tprnfor     = .true.,
  tstress     = .true.,
  verbosity   = 'high',
/
&SYSTEM
  ibrav       = 0,
  nat         = 29,
  ntyp        = 1,
  ecutwfc     = 60,
  ecutrho     = 410,
  occupations = 'smearing',
  smearing    = 'mv',
  degauss     = 0.02,
  nspin       = 2,
  starting_magnetization(1) = 0.6,
/
&ELECTRONS
  conv_thr    = 1.0d-8,
  mixing_beta = 0.7,
/
ATOMIC_SPECIES
  Mn  54.938044  Mn.ccECP-soft.UPF

CELL_PARAMETERS angstrom
 -4.262760000000   4.262760000000   4.262760000000
  4.262760000000  -4.262760000000   4.262760000000
  4.262760000000   4.262760000000  -4.262760000000

ATOMIC_POSITIONS crystal
Mn  0.000000000000   0.000000000000   0.000000000000
Mn  0.364357833892   0.000000000000   0.000000000000
Mn  0.606380607869   0.319148861301   0.000000000000
Mn  0.000000000000   0.364357833892   0.000000000000
Mn  0.319148861301   0.606380607869   0.000000000000
Mn  0.807034644221   0.630329880172   0.000000000000
Mn  0.630329880172   0.807034644221   0.000000000000
Mn  0.369670119828   0.369670119828   0.176704764050
Mn  0.823295235950   0.192965355779   0.192965355779
Mn  0.192965355779   0.823295235950   0.192965355779
Mn  0.680851138699   0.680851138699   0.287231746568
Mn  0.000000000000   0.606380607869   0.319148861301
Mn  0.606380607869   0.000000000000   0.319148861301
Mn  0.000000000000   0.000000000000   0.364357833892
Mn  0.369670119828   0.176704764050   0.369670119828
Mn  0.176704764050   0.369670119828   0.369670119828
Mn  0.712768253432   0.393619392131   0.393619392131
Mn  0.393619392131   0.712768253432   0.393619392131
Mn  0.319148861301   0.000000000000   0.606380607869
Mn  0.000000000000   0.319148861301   0.606380607869
Mn  0.807034644221   0.000000000000   0.630329880172
Mn  0.000000000000   0.807034644221   0.630329880172
Mn  0.635642166108   0.635642166108   0.635642166108
Mn  0.680851138699   0.287231746568   0.680851138699
Mn  0.287231746568   0.680851138699   0.680851138699
Mn  0.393619392131   0.393619392131   0.712768253432
Mn  0.630329880172   0.000000000000   0.807034644221
Mn  0.000000000000   0.630329880172   0.807034644221
Mn  0.192965355779   0.192965355779   0.823295235950

K_POINTS automatic
 4 4 4  0 0 0
